 $contrl runtyp=optimize $end
 $statpt opttol=0.0001 nstep=100 $end
 $contrl scftyp=rhf $end
 $basis gbasis=N31 ngauss=6 ndfunc=1 npfunc=1 $end
 $data
Title
C1
C     6.0     1.722100     0.196400     0.000000
C     6.0     3.117200     0.196400     0.000000
C     6.0     3.814800     1.404100     0.000000
C     6.0     3.117100     2.612600    -0.001200
C     6.0     1.722300     2.612600    -0.001700
C     6.0     1.024700     1.404400    -0.000700
H     1.0     1.172300    -0.755900     0.000400
H     1.0     3.666700    -0.756100     0.001300
H     1.0     3.667300     3.564800    -0.008300
H     1.0     1.172200     3.564800    -0.002600
Ru   44.0     2.302600     1.346700     2.238500
Cl   17.0     2.276200     2.644400     4.051800
Cl   17.0     2.292500    -0.779100     2.912200
C     6.0     5.354800     1.404000     0.001300
H     1.0     5.712300     1.462700    -1.005500
H     1.0     5.711000     2.246700     0.556100
H     1.0     5.710900     0.502400     0.454300
C     6.0     -0.515300     1.404600    -0.000900
H     1.0     -0.872200     0.503500     0.452500
C     6.0     -1.028400     1.488000    -1.450600
H     1.0     -0.677800     0.640900    -2.002300
H     1.0     -2.098400     1.495500    -1.450300
H     1.0     -0.665500     2.385500    -1.906300
C     6.0     -1.028600     2.618400     0.795900
H     1.0     -2.078300     2.738000     0.626800
H     1.0     -0.851100     2.461000     1.839300
H     1.0     -0.513000     3.499400     0.475300
 $end
